9
0 73 85 62 33 83 30 70 92 
28 0 78 13 21 100 57 78 73 
33 96 0 72 97 43 2 40 92 
65 55 62 0 82 28 33 8 59 
67 12 37 96 0 20 2 18 6 
94 7 46 80 32 0 73 17 12 
4 43 54 37 60 3 0 26 16 
65 57 80 95 4 86 55 0 29 
26 94 64 51 62 98 29 38 0 
